PatchBench/qemu/CWE-369-Divide-By-Zero/CVE_2014_0142_8e53abbc20d08ae3ec30c2054e1161314ad9501d/Resultbochs_open_SnippetEQ.smt2
; benchmark generated from python API
(set-info :status unknown)
(declare-fun R () (_ BitVec 32))
(declare-fun rdi () (_ BitVec 64))
(assert
 (let (($x30455 (= (_ bv4294967274 32) R)))
 (let ((?x6 ((_ extract 31 0) rdi)))
 (let (($x43 (= (_ bv0 32) ?x6)))
 (let (($x29407 (and $x43 $x30455)))
 (let (($x17 (and (distinct (_ bv0 32) ?x6) true)))
 (let (($x70970 (bvugt ?x6 (_ bv8388608 32))))
 (let (($x30635 (and $x70970 $x17 $x30455)))
 (let (($x70439 (= (_ bv4294967276 32) R)))
 (let (($x66 (bvule ?x6 (_ bv8388608 32))))
 (let ((?x7 ((_ zero_extend 32) ?x6)))
 (let ((?x11 ((_ sign_extend 64) ?x7)))
 (let ((?x12 (bvsdiv (_ bv9223372036854775807 128) ?x11)))
 (let ((?x13 ((_ extract 63 0) ?x12)))
 (let (($x32 (bvslt (_ bv4294967295 64) ?x13)))
 (let (($x30449 (and $x32 $x66 $x17 $x70439)))
 (let (($x30249 (or $x30449 $x30635 $x29407)))
 (let (($x30443 (= (_ bv0 32) R)))
 (let (($x58 (bvsge (_ bv4294967295 64) ?x13)))
 (let (($x30176 (and $x58 $x17 $x30443)))
 (let (($x30262 (and $x32 $x17 $x70439)))
 (let (($x30448 (or $x30262 $x30176)))
 (and $x30448 $x30249)))))))))))))))))))))))
(check-sat)
